CMD:
./solvers/bin/cadical --plain --no-reduce -t 1600 ./data/cnfs//6s403rb1342/6s403rb1342.67.cnf

c --- [ banner ] -------------------------------------------------------------
c 
c CaDiCaL SAT Solver
c Copyright (c) 2016-2024
c A. Biere, M. Fleury, N. Froleyks, K. Fazekas, F. Pollitt, T. Faller
c JKU Linz, University of Freiburg, TU Wien
c 
c Version 2.1.3 5296d3d2a9bf48c154ab2acb5e44625776d821bf
c g++ (Gentoo 12.3.1_p20230526 p2) 12.3.1 20230526 -Wall -Wextra -O3 -DNDEBUG
c Sat Aug 9 07:26:21 PDT 2025 Linux cedar2.int.cedar.computecanada.ca 5.14.0-362.24.2.el9_3.x86_64 x86_64
c 
c --- [ limit ] --------------------------------------------------------------
c 
c setting time limit to 1600 seconds real time (due to '-t 1600')
c 
c --- [ parsing input ] ------------------------------------------------------
c 
c reading DIMACS file from './data/cnfs//6s403rb1342/6s403rb1342.67.cnf'
c opening file to read './data/cnfs//6s403rb1342/6s403rb1342.67.cnf'
c found 'p cnf 2996206 8724836' header
c parsed 8724836 clauses in 1.38 seconds process time
c 
c --- [ options ] ------------------------------------------------------------
c 
c   --compact=false                (different from default 'true')
c   --decompose=false              (different from default 'true')
c   --deduplicate=false            (different from default 'true')
c   --elim=false                   (different from default 'true')
c   --probe=false                  (different from default 'true')
c   --reduce=false                 (different from default 'true')
c   --subsume=false                (different from default 'true')
c   --ternary=false                (different from default 'true')
c   --transred=false               (different from default 'true')
c   --vivify=false                 (different from default 'true')
c 
c --- [ solving ] ------------------------------------------------------------
c 
c time measured in process time since initialization
c 
c  seconds    reductions  redundant   irredundant
c          MB     restarts       trail         variables
c            level   conflicts       glue            remaining
c 
c *  1.38 1211  0 0   0    0    0  0% 0 7218956 2282020 76%
c {  1.39 1214  0 0   0    0    0  0% 0 7218956 2282020 76%
c i  1.42 1214 1477 0   0   16   13 22% 2 7218956 2282019 76%
c i  1.66 1217 1009 0  11  166  125 24% 3 7218956 2282018 76%
c i  1.75 1219 1253 0  13  226  181 25% 3 7218956 2282017 76%
c i  1.76 1219 1149 0  13  246  196 25% 3 7218956 2281744 76%
c i  1.76 1219 1144 0  13  247  196 25% 3 7218956 2281661 76%
c }  1.76 1219 1139 0  13  249  196 25% 3 7218956 2276967 76%
c 0  1.76 1219 1139 0  13  249  196 25% 3 7218956 2276967 76%
c 
c --- [ result ] -------------------------------------------------------------
c 
s UNSATISFIABLE
c 
c --- [ run-time profiling ] -------------------------------------------------
c 
c process time taken by individual solving procedures
c (percentage relative to process time for solving)
c 
c         1.38  364.00% parse
c         0.38   99.97% search
c         0.37   96.60% unstable
c         0.01    3.36% lucky
c         0.00    0.00% simplify
c   =================================
c         0.38   21.54% solve
c 
c last line shows process time for solving
c (percentage relative to total process time)
c 
c --- [ statistics ] ---------------------------------------------------------
c 
c chronological:               183        73.49 %  of conflicts
c conflicts:                   249       657.19    per second
c decisions:                 28255     74573.88    per second
c fixed:                    653385        21.81 %  of all variables
c learned:                     207        83.13 %  per conflict
c learned_lits:               1282       100.00 %  learned literals
c minimized:                     0         0.00 %  learned literals
c shrunken:                    159        12.40 %  learned literals
c minishrunken:                 37         2.89 %  learned literals
c otfs:                          5         2.01 %  of conflict
c propagations:            3066406         8.09 M  per second
c restarts:                     13        19.15    interval
c subsumed:                      5         0.00 %  of all clauses
c strengthened:                  5         0.00 %  of all clauses
c 
c seconds are measured in process time for solving
c 
c --- [ resources ] ----------------------------------------------------------
c 
c total process time since initialization:         1.76    seconds
c total real time since initialization:            1.77    seconds
c maximum resident set size of process:         1217.85    MB
c 
c --- [ shutting down ] ------------------------------------------------------
c 
c exit 20
